sat
(:added-eqs                       3727472
 :arith-eq-adapter                11275
 :arith-bound-propagations-lp     22228
 :arith-branch                    36
 :arith-conflicts                 35773
 :arith-cube-calls                21
 :arith-diseq                     415324
 :arith-fixed-eqs                 231723
 :arith-gcd-calls                 529
 :arith-gomory-cuts               27
 :arith-hnf-calls                 1
 :arith-horner-calls              357
 :arith-horner-conflicts          28
 :arith-horner-cross-nested-forms 24478
 :arith-lower                     442062
 :arith-make-feasible             200261
 :arith-max-columns               14646
 :arith-max-rows                  5647
 :arith-nla-lemmas                15666
 :arith-nla-propagate-bounds      17668
 :arith-nla-propagate-eq          3064372
 :arith-nra-calls                 312
 :arith-offset-eqs                232424
 :arith-patches                   529
 :arith-patches-success           443
 :arith-upper                     367899
 :binary-propagations             909910
 :conflicts                       3943
 :decisions                       446767
 :del-clause                      37052
 :final-checks                    3755
 :max-memory                      184.12
 :memory                          100.07
 :minimized-lits                  6600
 :mk-bool-var                     79477
 :mk-clause                       57799
 :mk-clause-binary                17886
 :nlsat-conflicts                 21499
 :nlsat-decisions                 380
 :nlsat-propagations              3547101
 :nlsat-stages                    1175638
 :num-allocs                      2595546255403.00
 :num-checks                      2
 :propagations                    1834945
 :restarts                        31
 :rlimit-count                    81643697
 :time                            50.39
 :total-time                      50.41)
